instances/p2/p2_4_13-4.dzn
Alphabet = {A,C,G,T};
ns = 4;
nc = 9;
neighbours = [| I(C),I(A),I(A),I(A),I(T),Null,Null,Null,Null | I(A),I(T),I(G),I(A),Null,Null,Null,Null,Null | I(C),Null,Null,Null,Null,Null,Null,Null,Null | I(A),I(T),I(T),I(A),I(G),I(G),I(A),I(T),I(G) |];
