instances/p2/p2_4_13-4.txt
{
	"num_strings": 4,
	"alphabet": "ACGT",
	"strings": [
		"CAAAT",
		"ATGA",
		"C",
		"ATTAGGATG"
	],
	"str_length":[5,4,1,9]
}